NAME 
ROWS
 N  OBJ
 L  R0      
 E  R1      
 E  R2      
 E  R3      
 E  R4      
 E  R5      
 E  R6      
 E  R7      
 E  R8      
 E  R9      
 E  R10     
 E  R11     
 E  R12     
 E  R13     
 E  R14     
 E  R15     
COLUMNS
    MARKER    'MARKER'                 'INTORG'
    I0(6)     OBJ       -117
    I0(6)     R0        -74
    I0(6)     R1        -1
    I0(6)     R2        8
    I0(6)     R5        9
    I0(6)     R6        19
    I0(6)     R15       1
    I1(7)     OBJ       -15
    I1(7)     R0        -114
    I1(7)     R1        8
    I1(7)     R2        13
    I1(7)     R3        15
    I1(7)     R4        15
    I1(7)     R5        12
    I1(7)     R15       1
    I2(6)     OBJ       31
    I2(6)     R0        60
    I2(6)     R1        14
    I2(6)     R2        6
    I2(6)     R4        -1
    I2(6)     R5        13
    I2(6)     R15       1
    I3(6)     OBJ       -200
    I3(6)     R0        -131
    I3(6)     R1        18
    I3(6)     R2        9
    I3(6)     R3        13
    I3(6)     R5        12
    I3(6)     R15       1
    I4(6)     OBJ       -22
    I4(6)     R0        31
    I4(6)     R1        8
    I4(6)     R2        4
    I4(6)     R3        14
    I4(6)     R4        1
    I4(6)     R15       1
    I5(6)     OBJ       -179
    I5(6)     R0        -52
    I5(6)     R1        7
    I5(6)     R3        -1
    I5(6)     R4        3
    I5(6)     R6        17
    I5(6)     R15       1
    MARKER    'MARKER'                 'INTEND'
    C6(8)     OBJ       3
    C6(8)     R0        3
    C6(8)     R1        18
    C6(8)     R4        6
    C6(8)     R5        14
    C6(8)     R6        -1
    C6(8)     R7        15
    C6(8)     R8        14
    C6(8)     R13       7
    C7(10)    OBJ       -2
    C7(10)    R0        7
    C7(10)    R2        11
    C7(10)    R5        14
    C7(10)    R6        18
    C7(10)    R7        3
    C7(10)    R9        17
    C7(10)    R10       3
    C7(10)    R11       2
    C7(10)    R12       -1
    C7(10)    R13       12
    C8(10)    OBJ       -9
    C8(10)    R0        3
    C8(10)    R2        10
    C8(10)    R3        13
    C8(10)    R5        1
    C8(10)    R6        10
    C8(10)    R8        1
    C8(10)    R9        18
    C8(10)    R10       8
    C8(10)    R11       10
    C8(10)    R13       13
    C9(11)    OBJ       9
    C9(11)    R1        12
    C9(11)    R2        18
    C9(11)    R3        2
    C9(11)    R4        15
    C9(11)    R5        12
    C9(11)    R6        6
    C9(11)    R7        10
    C9(11)    R9        3
    C9(11)    R11       10
    C9(11)    R12       7
    C9(11)    R13       15
    C10(8)    OBJ       8
    C10(8)    R0        -6
    C10(8)    R4        6
    C10(8)    R5        6
    C10(8)    R6        11
    C10(8)    R7        -1
    C10(8)    R9        6
    C10(8)    R12       6
    C10(8)    R14       11
    C11(11)   OBJ       -5
    C11(11)   R0        -7
    C11(11)   R1        -1
    C11(11)   R2        13
    C11(11)   R3        8
    C11(11)   R7        6
    C11(11)   R8        13
    C11(11)   R9        7
    C11(11)   R11       13
    C11(11)   R12       18
    C11(11)   R13       6
    C11(11)   R14       17
    C12(10)   OBJ       -3
    C12(10)   R0        1
    C12(10)   R1        13
    C12(10)   R2        16
    C12(10)   R3        1
    C12(10)   R6        5
    C12(10)   R8        17
    C12(10)   R9        9
    C12(10)   R10       12
    C12(10)   R11       5
    C12(10)   R12       4
    C13(9)    OBJ       -6
    C13(9)    R0        -5
    C13(9)    R2        18
    C13(9)    R4        19
    C13(9)    R5        13
    C13(9)    R6        3
    C13(9)    R7        4
    C13(9)    R8        12
    C13(9)    R10       2
    C13(9)    R12       1
    C14(12)   OBJ       4
    C14(12)   R0        -1
    C14(12)   R2        13
    C14(12)   R4        6
    C14(12)   R5        5
    C14(12)   R6        13
    C14(12)   R7        6
    C14(12)   R8        14
    C14(12)   R9        7
    C14(12)   R11       6
    C14(12)   R12       18
    C14(12)   R13       1
    C14(12)   R14       2
    C15(1)    R1        1
    C16(1)    R2        1
    C17(1)    R3        1
    C18(1)    R4        1
    C19(1)    R5        1
    C20(1)    R6        1
    C21(1)    R7        1
    C22(1)    R8        1
    C23(1)    R9        1
    C24(1)    R10       1
    C25(1)    R11       1
    C26(1)    R12       1
    C27(1)    R13       1
    C28(1)    R14       1
    C29(1)    R15       1
RHS
    RHS1      R0        -2.6355555555555554e+02
    RHS1      R1        55
    RHS1      R2        78
    RHS1      R3        60
    RHS1      R4        68
    RHS1      R5        56
    RHS1      R6        60
    RHS1      R7        99
    RHS1      R8        62
    RHS1      R9        78
    RHS1      R10       58
    RHS1      R11       77
    RHS1      R12       82
    RHS1      R13       84
    RHS1      R14       57
    RHS1      R15       2
BOUNDS
 UP BND1      I0(6)     2
 UP BND1      I1(7)     2
 UP BND1      I2(6)     2
 UP BND1      I3(6)     2
 UP BND1      I4(6)     2
 UP BND1      I5(6)     2
ENDATA
